%BLOCK lattice_cart
       21.7237993776107      -0.168970904493240E-06  -0.398783860273597E-13
     -0.422427261233100E-07    5.43094984440268      -0.589664399647058E-14
     -0.498481036971478E-13  -0.294832814593434E-13    27.1546917579646    
%ENDBLOCK lattice_cart

%BLOCK positions_frac
   Si             0.000000000000000       0.000000000000000       0.199999427738133
   Si             0.000000000000000       0.500000000000001       0.299999634291383
   Si             0.062500000000000       0.249999999999999       0.249999530779311
   Si             0.125000000000000       0.000000000000001       0.299999634291383
   Si             0.062500000000000       0.749999999999999       0.349999740631362
   Si             0.187500000000000       0.250000000000000       0.349999740631362
   Si             0.187500000000000       0.749999999999999       0.249999530779311
   Si             0.125000000000000       0.500000000000001       0.199999427738133
   Si             0.250000000000000       0.000000000000001       0.199999427738133
   Si             0.250000000000000       0.500000000000000       0.299999634291383
   Si             0.312500000000000       0.250000000000000       0.249999530779311
   Si             0.375000000000000       0.000000000000001       0.299999634291383
   Si             0.312500000000000       0.750000000000000       0.349999740631362
   Si             0.437500000000000       0.249999999999999       0.349999740631362
   Si             0.437500000000000       0.749999999999999       0.249999530779312
   Si             0.375000000000000       0.500000000000000       0.199999427738133
   Si             0.500000000000000       0.000000000000001       0.199999427738133
   Si             0.500000000000000       0.500000000000001       0.299999634291383
   Si             0.562500000000000       0.249999999999999       0.249999530779311
   Si             0.625000000000000       0.000000000000001       0.299999634291383
   Si             0.562500000000000       0.749999999999999       0.349999740631362
   Si             0.687500000000000       0.250000000000000       0.349999740631362
   Si             0.687500000000000       0.749999999999999       0.249999530779311
   Si             0.625000000000000       0.500000000000000       0.199999427738133
   Si             0.750000000000000       0.000000000000000       0.199999427738133
   Si             0.750000000000000       0.500000000000000       0.299999634291383
   Si             0.812499999999999       0.250000000000000       0.249999530779311
   Si             0.875000000000000       0.000000000000000       0.299999634291383
   Si             0.812500000000000       0.750000000000000       0.349999740631362
   Si             0.937500000000000       0.249999999999999       0.349999740631362
   Si             0.937500000000000       0.749999999999999       0.249999530779311
   Si             0.875000000000000       0.500000000000000       0.199999427738133
   Si             0.000000000000000       0.000000000000000       0.399999844098574
   Si             0.000000000000000       0.500000000000001       0.500000051353832
   Si             0.062500000000000       0.249999999999999       0.449999948646169
   Si             0.125000000000000       0.000000000000001       0.500000051353831
   Si             0.062500000000000       0.749999999999999       0.550000155901426
   Si             0.187500000000000       0.249999999999999       0.550000155901426
   Si             0.187500000000000       0.749999999999999       0.449999948646169
   Si             0.125000000000000       0.500000000000001       0.399999844098574
   Si             0.250000000000000       0.000000000000000       0.399999844098574
   Si             0.250000000000000       0.500000000000000       0.500000051353831
   Si             0.312500000000000       0.250000000000000       0.449999948646169
   Si             0.375000000000000       0.000000000000001       0.500000051353831
   Si             0.312500000000000       0.750000000000000       0.550000155901426
   Si             0.437500000000000       0.249999999999999       0.550000155901426
   Si             0.437500000000000       0.750000000000000       0.449999948646169
   Si             0.375000000000000       0.500000000000001       0.399999844098574
   Si             0.500000000000000       0.000000000000000       0.399999844098574
   Si             0.500000000000000       0.500000000000001       0.500000051353831
   Si             0.562500000000000       0.250000000000000       0.449999948646169
   Si             0.625000000000000       0.000000000000000       0.500000051353831
   Si             0.562500000000000       0.750000000000000       0.550000155901426
   Si             0.687500000000000       0.249999999999999       0.550000155901426
   Si             0.687500000000000       0.750000000000000       0.449999948646169
   Si             0.625000000000000       0.500000000000001       0.399999844098574
   Si             0.750000000000000       0.000000000000001       0.399999844098574
   Si             0.750000000000000       0.500000000000001       0.500000051353832
   Si             0.812500000000000       0.250000000000000       0.449999948646169
   Si             0.875000000000000       0.000000000000001       0.500000051353832
   Si             0.812500000000000       0.750000000000000       0.550000155901426
   Si             0.937500000000000       0.249999999999999       0.550000155901426
   Si             0.937500000000000       0.749999999999999       0.449999948646169
   Si             0.875000000000000       0.500000000000001       0.399999844098574
   Si             0.000000000000000       0.000000000000000       0.600000259368638
   Si             0.000000000000000       0.500000000000001       0.700000469220689
   Si             0.062500000000000       0.249999999999999       0.650000365708617
   Si             0.125000000000000       0.000000000000001       0.700000469220689
   Si             0.062500000000000       0.749999999999999       0.750000572261868
   Si             0.187500000000000       0.250000000000000       0.750000572261868
   Si             0.187500000000000       0.749999999999999       0.650000365708617
   Si             0.125000000000000       0.500000000000001       0.600000259368638
   Si             0.250000000000000       0.000000000000000       0.600000259368638
   Si             0.250000000000000       0.500000000000001       0.700000469220689
   Si             0.312500000000000       0.249999999999999       0.650000365708617
   Si             0.375000000000000       0.000000000000000       0.700000469220689
   Si             0.312500000000000       0.750000000000000       0.750000572261867
   Si             0.437500000000000       0.249999999999999       0.750000572261868
   Si             0.437500000000000       0.750000000000000       0.650000365708617
   Si             0.375000000000000       0.500000000000000       0.600000259368638
   Si             0.500000000000000       0.000000000000000       0.600000259368638
   Si             0.500000000000000       0.500000000000002       0.700000469220689
   Si             0.562500000000000       0.250000000000000       0.650000365708618
   Si             0.625000000000000       0.000000000000001       0.700000469220689
   Si             0.562500000000000       0.749999999999999       0.750000572261867
   Si             0.687500000000000       0.250000000000000       0.750000572261868
   Si             0.687500000000000       0.749999999999999       0.650000365708617
   Si             0.625000000000000       0.500000000000001       0.600000259368638
   Si             0.750000000000000       0.000000000000000       0.600000259368638
   Si             0.750000000000000       0.500000000000000       0.700000469220689
   Si             0.812500000000000       0.250000000000000       0.650000365708617
   Si             0.875000000000000       0.000000000000000       0.700000469220689
   Si             0.812500000000000       0.750000000000000       0.750000572261868
   Si             0.937500000000000       0.249999999999999       0.750000572261868
   Si             0.937500000000000       0.749999999999999       0.650000365708617
   Si             0.875000000000000       0.500000000000001       0.600000259368638
%ENDBLOCK positions_frac

FIX_COM : true

%BLOCK species_pot
   Si      Si_NCP19_PBE_OTF.usp
%ENDBLOCK species_pot

SYMMETRY_TOL :     0.001000

%BLOCK symmetry_ops
# Symm. op. 1       E
          1.000000000000000       0.000000000000000       0.000000000000000
          0.000000000000000       1.000000000000000       0.000000000000000
          0.000000000000000       0.000000000000000       1.000000000000000
          0.000000000000000       0.000000000000000       0.000000000000000
%ENDBLOCK symmetry_ops

phonon_kpoint_mp_grid : 2 4 1

phonon_kpoint_mp_offset : 0.250 0.125 0.000

phonon_fine_kpoint_path_spacing : 0.01

%Block phonon_fine_kpoint_path
  0.0 0.0 0.0
  0.5 0.0 0.0
  0.5 0.5 0.0
  0.0 0.0 0.0
%endBlock phonon_fine_kpoint_path

%block cell_devel_code
P1_SYMMETRY
%endblock cell_devel_code
