%BLOCK lattice_cart
       21.7237994844299        0.00000000000000       0.325768728423292E-06
     -0.286058962599167E-07    5.43094974230804       0.111764355924528E-06
       0.00000000000000        0.00000000000000        38.0166115950195    
%ENDBLOCK lattice_cart

%BLOCK positions_frac
   Si             0.000000009608344       0.000000052806844       0.142856867212050
   Si             0.000000001422822       0.500000021260612       0.214285511007808
   Si             0.062500005700050       0.250000055988669       0.178571188820291
   Si             0.124999994447294       0.000000021569761       0.214285511169892
   Si             0.062499995461045       0.750000015973214       0.249999833282440
   Si             0.187499990331879       0.250000021172770       0.249999831697925
   Si             0.187500004109919       0.750000060362201       0.178571191355111
   Si             0.125000008248576       0.500000065622232       0.142856868962835
   Si             0.250000008339455       0.000000063717747       0.142856871270773
   Si             0.249999993314798       0.500000021069331       0.214285512073132
   Si             0.312500004707617       0.250000052736042       0.178571194342780
   Si             0.374999998951812       0.000000015982394       0.214285512125571
   Si             0.312499992103689       0.750000025020569       0.249999831586059
   Si             0.437499998148036       0.250000026793602       0.249999830285245
   Si             0.437500006634636       0.750000043489863       0.178571194211946
   Si             0.375000006902804       0.500000053839925       0.142856873337885
   Si             0.500000008261989       0.000000043350345       0.142856872970126
   Si             0.500000005643132       0.500000020176038       0.214285510556480
   Si             0.562500009992399       0.250000035702722       0.178571192836450
   Si             0.625000010028741       0.000000025860670       0.214285511041012
   Si             0.562500007084492       0.750000013312190       0.249999829422418
   Si             0.687500013946896       0.250000011708892       0.249999829997397
   Si             0.687500011427911       0.750000029423426       0.178571191211147
   Si             0.625000008478426       0.500000040412194       0.142856871613585
   Si             0.750000009551832       0.000000036895407       0.142856869461573
   Si             0.750000013708763       0.500000026877069       0.214285510393588
   Si             0.812500012838375       0.250000034230844       0.178571187956042
   Si             0.875000009739969       0.000000025965952       0.214285509438297
   Si             0.812500014567266       0.750000014802371       0.249999831868898
   Si             0.937500005203161       0.250000013154473       0.249999832909726
   Si             0.937500010097887       0.750000038716766       0.178571187679111
   Si             0.875000008921055       0.500000053332732       0.142856866452234
   Si             0.999999997356179       0.000000000715344       0.285714156607421
   Si             0.999999995323937       0.499999977809503       0.357142803099096
   Si             0.062499992885245       0.249999988954548       0.321428479546259
   Si             0.124999988022661       0.999999965005980       0.357142800024031
   Si             0.062499995262847       0.749999959827966       0.392857124859018
   Si             0.187499988247309       0.249999970721797       0.392857118643402
   Si             0.187499984787765       0.749999993861451       0.321428474127799
   Si             0.124999987988494       0.499999991051019       0.285714154572328
   Si             0.249999983769658       0.999999995632064       0.285714152118700
   Si             0.249999980972727       0.499999970702935       0.357142792344318
   Si             0.312499985217491       0.250000000562166       0.321428470089455
   Si             0.374999986233187       0.999999977943688       0.357142786009520
   Si             0.312499984809850       0.749999979739424       0.392857107983357
   Si             0.437499989197339       0.249999992582032       0.392857101455377
   Si             0.437499992212768       0.750000005931440       0.321428466944603
   Si             0.374999989947199       0.499999999886804       0.285714150174569
   Si             0.499999999425017       0.999999997924141       0.285714148088626
   Si             0.499999993771812       0.499999982600340       0.357142781947596
   Si             0.562500001597720       0.249999998917317       0.321428465506434
   Si             0.625000000425439       0.999999982275466       0.357142784106896
   Si             0.562499993934005       0.749999977995785       0.392857100869049
   Si             0.687499998580293       0.249999960588697       0.392857107186932
   Si             0.687500009488954       0.749999983947826       0.321428469305458
   Si             0.625000008163139       0.500000002011850       0.285714148587971
   Si             0.750000010718399       0.000000004777864       0.285714151450215
   Si             0.750000005014396       0.499999981445747       0.357142791874946
   Si             0.812500010431977       0.249999982382766       0.321428474403014
   Si             0.875000001642563       0.999999983115201       0.357142799934927
   Si             0.812500002813824       0.749999951016253       0.392857117021492
   Si             0.937499999888226       0.249999952370806       0.392857123766991
   Si             0.937500001924093       0.749999987431418       0.321428478955138
   Si             0.875000007163879       0.500000003747391       0.285714154876804
   Si             0.999999992763554       0.999999942259256       0.428571446827252
   Si             0.999999989991162       0.499999922620932       0.500000088687803
   Si             0.062499995052700       0.249999926998402       0.464285769058727
   Si             0.124999996320301       0.999999919649927       0.500000089207402
   Si             0.062499995891730       0.749999900072135       0.535714410015174
   Si             0.187500006762506       0.249999930594788       0.535714403156049
   Si             0.187499994279655       0.749999948308565       0.464285762269094
   Si             0.124999990363691       0.499999940259400       0.428571445401032
   Si             0.249999987268071       0.999999948094152       0.428571435269745
   Si             0.250000000563430       0.499999935553172       0.500000077567236
   Si             0.312499993234083       0.249999964407547       0.464285748741028
   Si             0.375000000021987       0.999999974483220       0.500000065575288
   Si             0.312500007765268       0.749999964983205       0.535714390145006
   Si             0.437500001075158       0.249999983979450       0.535714383108537
   Si             0.437499988858975       0.749999976776797       0.464285739612536
   Si             0.374999987069165       0.499999966530843       0.428571423943342
   Si             0.499999989365984       0.999999971748653       0.428571418885176
   Si             0.499999992185220       0.499999992053829       0.500000059037305
   Si             0.562499985868283       0.249999972821210       0.464285739273990
   Si             0.624999985238107       0.999999979854447       0.500000060617568
   Si             0.562499987860840       0.749999979231001       0.535714381217301
   Si             0.687499979268370       0.249999952256900       0.535714386383714
   Si             0.687499986676537       0.749999949635049       0.464285746708933
   Si             0.624999991869953       0.499999967385110       0.428571421622366
   Si             0.749999994630788       0.999999958624110       0.428571430866906
   Si             0.749999984145790       0.499999963385268       0.500000070882605
   Si             0.812499990679161       0.249999936178157       0.464285758118175
   Si             0.874999984448241       0.999999933384910       0.500000083159423
   Si             0.812499969188428       0.749999957515808       0.535714400366628
   Si             0.937499980133330       0.249999929704304       0.535714407132046
   Si             0.937499992318986       0.749999928108283       0.464285767168151
   Si             0.874999995897040       0.499999949868387       0.428571440984444
   Si             0.250000018652000       0.999999946285469       0.571428719201042
   Si             0.250000033378692       0.499999991617872       0.642857355776393
   Si             0.312500022288798       0.249999986693965       0.607143031335319
   Si             0.375000028331502       0.000000023843922       0.642857349931507
   Si             0.312500029596988       0.750000041490878       0.678571668250510
   Si             0.437500018401424       0.250000023448374       0.678571672024423
   Si             0.437500011478476       0.749999992704876       0.607143027788556
   Si             0.375000014727112       0.499999987808310       0.571428708260902
   Si             0.500000000021234       0.999999998299776       0.571428704784305
   Si             0.500000008530056       0.500000012837643       0.642857349457835
   Si             0.562499994288228       0.249999989417909       0.607143027145698
   Si             0.624999993858231       0.999999996130490       0.642857345255665
   Si             0.562500000347034       0.750000021850899       0.678571669998150
   Si             0.687499989948831       0.250000019326844       0.678571662337760
   Si             0.687499985945980       0.749999967601413       0.607143025000707
   Si             0.624999984952116       0.499999985653820       0.571428703664478
   Si             0.250000028461702       0.000000096237806       0.714285977427528
   Si             0.249999994037486       0.500000160602901       0.785714599706474
   Si             0.312500016597173       0.250000089405559       0.750000302628666
   Si             0.375000003402243       0.000000094048392       0.785714628954542
   Si             0.312499964974028       0.750000162895975       0.821428937316112
   Si             0.437499999944028       0.250000056337274       0.821428954860975
   Si             0.437500012764604       0.750000063110188       0.750000317629670
   Si             0.375000028749195       0.500000066461304       0.714285989611928
   Si             0.500000012364561       0.000000035298941       0.714285994207203
   Si             0.500000009323440       0.500000036132185       0.785714636131190
   Si             0.562500006256576       0.250000033794745       0.750000315514565
   Si             0.625000007465246       0.000000014752593       0.785714631973552
   Si             0.562500019279763       0.749999986381582       0.821428955962309
   Si             0.687499999847505       0.750000050471528       0.750000303164020
   Si             0.624999999585782       0.500000016924446       0.714285988656463
%ENDBLOCK positions_frac

FIX_COM : true

%BLOCK species_pot
   Si      Si_NCP19_PBE_OTF.usp
%ENDBLOCK species_pot

kpoint_mp_grid :    1   1   1

phonon_kpoint_mp_grid :    2   4   1

phonon_kpoint_mp_offset : 0.25 0.125 0.0

%block cell_devel_code
P1_SYMMETRY
%endblock cell_devel_code