#
#  
#
%BLOCK lattice_cart
 21.7237924999999983   0.0000000000000000   0.0000018000000000
  0.0000008000000000   5.4309494000000003   0.0000001000000000
  0.0000000000000000   0.0000000000000000  38.0166066000000029
%ENDBLOCK lattice_cart

%BLOCK cell_constraints
   1   2   3
   4   5   6
%ENDBLOCK cell_constraints

%BLOCK species_pot
Si       NCP
%ENDBLOCK species_pot

%BLOCK positions_frac
Si         0.0000000000000000   0.0000000000000000   0.1428570000000000
Si         0.0000000000000000   0.5000000000000000   0.2142850000000000
Si         0.0625000000000000   0.2500000000000000   0.1785710000000000
Si         0.1250000000000000   0.0000000000000000   0.2142850000000000
Si         0.0625000000000000   0.7500000000000000   0.2500000000000000
Si         0.1875000000000000   0.2500000000000000   0.2500000000000000
Si         0.1875000000000000   0.7500000000000000   0.1785710000000000
Si         0.1250000000000000   0.5000000000000000   0.1428570000000000
Si         0.2500000000000000   0.0000000000000000   0.1428570000000000
Si         0.2500000000000000   0.5000000000000000   0.2142850000000000
Si         0.3125000000000000   0.2500000000000000   0.1785710000000000
Si         0.3750000000000000   0.0000000000000000   0.2142850000000000
Si         0.3125000000000000   0.7500000000000000   0.2500000000000000
Si         0.4375000000000000   0.2500000000000000   0.2500000000000000
Si         0.4375000000000000   0.7500000000000000   0.1785710000000000
Si         0.3750000000000000   0.5000000000000000   0.1428570000000000
Si         0.5000000000000000   0.0000000000000000   0.1428570000000000
Si         0.5000000000000000   0.5000000000000000   0.2142850000000000
Si         0.5625000000000000   0.2500000000000000   0.1785710000000000
Si         0.6250000000000000   0.0000000000000000   0.2142850000000000
Si         0.5625000000000000   0.7500000000000000   0.2500000000000000
Si         0.6875000000000000   0.2500000000000000   0.2500000000000000
Si         0.6875000000000000   0.7500000000000000   0.1785710000000000
Si         0.6250000000000000   0.5000000000000000   0.1428570000000000
Si         0.7500000000000000   0.0000000000000000   0.1428570000000000
Si         0.7500000000000000   0.5000000000000000   0.2142850000000000
Si         0.8125000000000000   0.2500000000000000   0.1785710000000000
Si         0.8750000000000000   0.0000000000000000   0.2142850000000000
Si         0.8125000000000000   0.7500000000000000   0.2500000000000000
Si         0.9375000000000000   0.2500000000000000   0.2500000000000000
Si         0.9375000000000000   0.7500000000000000   0.1785710000000000
Si         0.8750000000000000   0.5000000000000000   0.1428570000000000
Si         1.0000000000000000   0.0000000000000000   0.2857140000000000
Si         1.0000000000000000   0.5000000000000000   0.3571430000000000
Si         0.0625000000000000   0.2500000000000000   0.3214290000000000
Si         0.1250000000000000   1.0000000000000000   0.3571430000000000
Si         0.0625000000000000   0.7500000000000000   0.3928570000000000
Si         0.1875000000000000   0.2500000000000000   0.3928570000000000
Si         0.1875000000000000   0.7500000000000000   0.3214280000000000
Si         0.1250000000000000   0.5000000000000000   0.2857140000000000
Si         0.2500000000000000   1.0000000000000000   0.2857140000000000
Si         0.2500000000000000   0.5000000000000000   0.3571430000000000
Si         0.3125000000000000   0.2500000000000000   0.3214280000000000
Si         0.3750000000000000   1.0000000000000000   0.3571430000000000
Si         0.3125000000000000   0.7500000000000000   0.3928570000000000
Si         0.4375000000000000   0.2500000000000000   0.3928570000000000
Si         0.4375000000000000   0.7500000000000000   0.3214280000000000
Si         0.3750000000000000   0.5000000000000000   0.2857140000000000
Si         0.5000000000000000   0.0000000000000000   0.2857140000000000
Si         0.5000000000000000   0.5000000000000000   0.3571430000000000
Si         0.5625000000000000   0.2500000000000000   0.3214280000000000
Si         0.6250000000000000   0.0000000000000000   0.3571430000000000
Si         0.5625000000000000   0.7500000000000000   0.3928570000000000
Si         0.6875000000000000   0.2500000000000000   0.3928570000000000
Si         0.6875000000000000   0.7500000000000000   0.3214280000000000
Si         0.6250000000000000   0.5000000000000000   0.2857140000000000
Si         0.7500000000000000   0.0000000000000000   0.2857140000000000
Si         0.7500000000000000   0.5000000000000000   0.3571430000000000
Si         0.8125000000000000   0.2500000000000000   0.3214280000000000
Si         0.8750000000000000   0.0000000000000000   0.3571430000000000
Si         0.8125000000000000   0.7500000000000000   0.3928570000000000
Si         0.9375000000000000   0.2500000000000000   0.3928570000000000
Si         0.9375000000000000   0.7500000000000000   0.3214290000000000
Si         0.8750000000000000   0.5000000000000000   0.2857140000000000
Si         1.0000000000000000   1.0000000000000000   0.4285720000000000
Si         1.0000000000000000   0.5000000000000000   0.5000000000000000
Si         0.0625000000000000   0.2500000000000000   0.4642860000000000
Si         0.1250000000000000   1.0000000000000000   0.5000000000000000
Si         0.0625000000000000   0.7500000000000000   0.5357150000000001
Si         0.1875000000000000   0.2500000000000000   0.5357150000000001
Si         0.1875000000000000   0.7500000000000000   0.4642860000000000
Si         0.1250000000000000   0.5000000000000000   0.4285720000000000
Si         0.2500000000000000   1.0000000000000000   0.4285720000000000
Si         0.2500000000000000   0.5000000000000000   0.5000000000000000
Si         0.3125000000000000   0.2500000000000000   0.4642860000000000
Si         0.3750000000000000   1.0000000000000000   0.5000000000000000
Si         0.3125000000000000   0.7500000000000000   0.5357140000000000
Si         0.4375000000000000   0.2500000000000000   0.5357140000000000
Si         0.4375000000000000   0.7500000000000000   0.4642860000000000
Si         0.3750000000000000   0.5000000000000000   0.4285720000000000
Si         0.5000000000000000   1.0000000000000000   0.4285710000000000
Si         0.5000000000000000   0.5000000000000000   0.5000000000000000
Si         0.5625000000000000   0.2500000000000000   0.4642860000000000
Si         0.6250000000000000   1.0000000000000000   0.5000000000000000
Si         0.5625000000000000   0.7500000000000000   0.5357140000000000
Si         0.6875000000000000   0.2500000000000000   0.5357140000000000
Si         0.6875000000000000   0.7500000000000000   0.4642860000000000
Si         0.6250000000000000   0.5000000000000000   0.4285710000000000
Si         0.7500000000000000   1.0000000000000000   0.4285720000000000
Si         0.7500000000000000   0.5000000000000000   0.5000000000000000
Si         0.8125000000000000   0.2500000000000000   0.4642860000000000
Si         0.8750000000000000   1.0000000000000000   0.5000000000000000
Si         0.8125000000000000   0.7500000000000000   0.5357150000000001
Si         0.9375000000000000   0.2500000000000000   0.5357150000000001
Si         0.9375000000000000   0.7500000000000000   0.4642860000000000
Si         0.8750000000000000   0.5000000000000000   0.4285720000000000
Si         0.2500000000000000   1.0000000000000000   0.5714290000000000
Si         0.2500000000000000   0.5000000000000000   0.6428570000000000
Si         0.3125000000000000   0.2500000000000000   0.6071430000000000
Si         0.3750000000000000   1.0000000000000000   0.6428570000000000
Si         0.3125000000000000   0.7500000000000000   0.6785720000000000
Si         0.4375000000000000   0.2500000000000000   0.6785720000000000
Si         0.4375000000000000   0.7500000000000000   0.6071430000000000
Si         0.3750000000000000   0.5000000000000000   0.5714290000000000
Si         0.5000000000000000   1.0000000000000000   0.5714290000000000
Si         0.5000000000000000   0.5000000000000000   0.6428570000000000
Si         0.5625000000000000   0.2500000000000000   0.6071430000000000
Si         0.6250000000000000   1.0000000000000000   0.6428570000000000
Si         0.5625000000000000   0.7500000000000000   0.6785720000000000
Si         0.6875000000000000   0.2500000000000000   0.6785720000000000
Si         0.6875000000000000   0.7500000000000000   0.6071430000000000
Si         0.6250000000000000   0.5000000000000000   0.5714290000000000
Si         0.2500000000000000   0.0000000000000000   0.7142860000000000
Si         0.2500000000000000   0.5000000000000000   0.7857140000000000
Si         0.3125000000000000   0.2500000000000000   0.7500000000000000
Si         0.3750000000000000   1.0000000000000000   0.7857140000000000
Si         0.3125000000000000   0.7500000000000000   0.8214290000000000
Si         0.4375000000000000   0.2500000000000000   0.8214290000000000
Si         0.4375000000000000   0.7500000000000000   0.7500000000000000
Si         0.3750000000000000   0.5000000000000000   0.7142860000000000
Si         0.5000000000000000   1.0000000000000000   0.7142860000000000
Si         0.5000000000000000   0.5000000000000000   0.7857140000000000
Si         0.5625000000000000   0.2500000000000000   0.7500000000000000
Si         0.6250000000000000   0.0000000000000000   0.7857140000000000
Si         0.5625000000000000   0.7500000000000000   0.8214290000000000
Si         0.6875000000000000   0.2500000000000000   0.8214290000000000
Si         0.6875000000000000   0.7500000000000000   0.7500000000000000
Si         0.6250000000000000   0.5000000000000000   0.7142860000000000
%ENDBLOCK positions_frac

%BLOCK kpoints_list
%ENDBLOCK kpoints_list

%BLOCK external_pressure
GPa
    0.0000000000    0.0000000000    0.0000000000
                    0.0000000000    0.0000000000
                                    0.0000000000
%ENDBLOCK external_pressure
