%BLOCK LATTICE_CART
21.72284000   0.00000000   0.00000000
 0.00000000   5.43071000   0.00000000
 0.00000000   0.00000000  43.44568000
%ENDBLOCK LATTICE_CART

%BLOCK POSITIONS_FRAC
  Si   0.00000000   0.00000000   0.12500000
  Si   0.00000000   0.50000000   0.18750000
  Si   0.06250000   0.25000000   0.15625000
  Si   0.12500000   0.00000000   0.18750000
  Si   0.06250000   0.75000000   0.21875000
  Si   0.18750000   0.25000000   0.21875000
  Si   0.18750000   0.75000000   0.15625000
  Si   0.12500000   0.50000000   0.12500000
  Si   0.25000000   0.00000000   0.12500000
  Si   0.25000000   0.50000000   0.18750000
  Si   0.31250000   0.25000000   0.15625000
  Si   0.37500000   0.00000000   0.18750000
  Si   0.31250000   0.75000000   0.21875000
  Si   0.43750000   0.25000000   0.21875000
  Si   0.43750000   0.75000000   0.15625000
  Si   0.37500000   0.50000000   0.12500000
  Si   0.50000000   0.00000000   0.12500000
  Si   0.50000000   0.50000000   0.18750000
  Si   0.56250000   0.25000000   0.15625000
  Si   0.62500000   0.00000000   0.18750000
  Si   0.56250000   0.75000000   0.21875000
  Si   0.68750000   0.25000000   0.21875000
  Si   0.68750000   0.75000000   0.15625000
  Si   0.62500000   0.50000000   0.12500000
  Si   0.75000000   0.00000000   0.12500000
  Si   0.75000000   0.50000000   0.18750000
  Si   0.81250000   0.25000000   0.15625000
  Si   0.87500000   0.00000000   0.18750000
  Si   0.81250000   0.75000000   0.21875000
  Si   0.93750000   0.25000000   0.21875000
  Si   0.93750000   0.75000000   0.15625000
  Si   0.87500000   0.50000000   0.12500000
  Si   0.00000000   0.00000000   0.25000000
  Si   0.00000000   0.50000000   0.31250000
  Si   0.06250000   0.25000000   0.28125000
  Si   0.12500000   0.00000000   0.31250000
  Si   0.06250000   0.75000000   0.34375000
  Si   0.18750000   0.25000000   0.34375000
  Si   0.18750000   0.75000000   0.28125000
  Si   0.12500000   0.50000000   0.25000000
  Si   0.25000000   0.00000000   0.25000000
  Si   0.25000000   0.50000000   0.31250000
  Si   0.31250000   0.25000000   0.28125000
  Si   0.37500000   0.00000000   0.31250000
  Si   0.31250000   0.75000000   0.34375000
  Si   0.43750000   0.25000000   0.34375000
  Si   0.43750000   0.75000000   0.28125000
  Si   0.37500000   0.50000000   0.25000000
  Si   0.50000000   0.00000000   0.25000000
  Si   0.50000000   0.50000000   0.31250000
  Si   0.56250000   0.25000000   0.28125000
  Si   0.62500000   0.00000000   0.31250000
  Si   0.56250000   0.75000000   0.34375000
  Si   0.68750000   0.25000000   0.34375000
  Si   0.68750000   0.75000000   0.28125000
  Si   0.62500000   0.50000000   0.25000000
  Si   0.75000000   0.00000000   0.25000000
  Si   0.75000000   0.50000000   0.31250000
  Si   0.81250000   0.25000000   0.28125000
  Si   0.87500000   0.00000000   0.31250000
  Si   0.81250000   0.75000000   0.34375000
  Si   0.93750000   0.25000000   0.34375000
  Si   0.93750000   0.75000000   0.28125000
  Si   0.87500000   0.50000000   0.25000000
  Si   0.00000000   0.00000000   0.37500000
  Si   0.00000000   0.50000000   0.43750000
  Si   0.06250000   0.25000000   0.40625000
  Si   0.12500000   0.00000000   0.43750000
  Si   0.06250000   0.75000000   0.46875000
  Si   0.18750000   0.25000000   0.46875000
  Si   0.18750000   0.75000000   0.40625000
  Si   0.12500000   0.50000000   0.37500000
  Si   0.25000000   0.00000000   0.37500000
  Si   0.25000000   0.50000000   0.43750000
  Si   0.31250000   0.25000000   0.40625000
  Si   0.37500000   0.00000000   0.43750000
  Si   0.31250000   0.75000000   0.46875000
  Si   0.43750000   0.25000000   0.46875000
  Si   0.43750000   0.75000000   0.40625000
  Si   0.37500000   0.50000000   0.37500000
  Si   0.50000000   0.00000000   0.37500000
  Si   0.50000000   0.50000000   0.43750000
  Si   0.56250000   0.25000000   0.40625000
  Si   0.62500000   0.00000000   0.43750000
  Si   0.56250000   0.75000000   0.46875000
  Si   0.68750000   0.25000000   0.46875000
  Si   0.68750000   0.75000000   0.40625000
  Si   0.62500000   0.50000000   0.37500000
  Si   0.75000000   0.00000000   0.37500000
  Si   0.75000000   0.50000000   0.43750000
  Si   0.81250000   0.25000000   0.40625000
  Si   0.87500000   0.00000000   0.43750000
  Si   0.81250000   0.75000000   0.46875000
  Si   0.93750000   0.25000000   0.46875000
  Si   0.93750000   0.75000000   0.40625000
  Si   0.87500000   0.50000000   0.37500000
  Si   0.00000000   0.00000000   0.50000000
  Si   0.00000000   0.50000000   0.56250000
  Si   0.06250000   0.25000000   0.53125000
  Si   0.12500000   0.00000000   0.56250000
  Si   0.06250000   0.75000000   0.59375000
  Si   0.18750000   0.25000000   0.59375000
  Si   0.18750000   0.75000000   0.53125000
  Si   0.12500000   0.50000000   0.50000000
  Si   0.25000000   0.00000000   0.50000000
  Si   0.25000000   0.50000000   0.56250000
  Si   0.31250000   0.25000000   0.53125000
  Si   0.37500000   0.00000000   0.56250000
  Si   0.31250000   0.75000000   0.59375000
  Si   0.43750000   0.25000000   0.59375000
  Si   0.43750000   0.75000000   0.53125000
  Si   0.37500000   0.50000000   0.50000000
  Si   0.50000000   0.00000000   0.50000000
  Si   0.50000000   0.50000000   0.56250000
  Si   0.56250000   0.25000000   0.53125000
  Si   0.62500000   0.00000000   0.56250000
  Si   0.56250000   0.75000000   0.59375000
  Si   0.68750000   0.25000000   0.59375000
  Si   0.68750000   0.75000000   0.53125000
  Si   0.62500000   0.50000000   0.50000000
  Si   0.75000000   0.00000000   0.50000000
  Si   0.75000000   0.50000000   0.56250000
  Si   0.81250000   0.25000000   0.53125000
  Si   0.87500000   0.00000000   0.56250000
  Si   0.81250000   0.75000000   0.59375000
  Si   0.93750000   0.25000000   0.59375000
  Si   0.93750000   0.75000000   0.53125000
  Si   0.87500000   0.50000000   0.50000000
  Si   0.00000000   0.00000000   0.62500000
  Si   0.00000000   0.50000000   0.68750000
  Si   0.06250000   0.25000000   0.65625000
  Si   0.12500000   0.00000000   0.68750000
  Si   0.06250000   0.75000000   0.71875000
  Si   0.18750000   0.25000000   0.71875000
  Si   0.18750000   0.75000000   0.65625000
  Si   0.12500000   0.50000000   0.62500000
  Si   0.25000000   0.00000000   0.62500000
  Si   0.25000000   0.50000000   0.68750000
  Si   0.31250000   0.25000000   0.65625000
  Si   0.37500000   0.00000000   0.68750000
  Si   0.31250000   0.75000000   0.71875000
  Si   0.43750000   0.25000000   0.71875000
  Si   0.43750000   0.75000000   0.65625000
  Si   0.37500000   0.50000000   0.62500000
  Si   0.50000000   0.00000000   0.62500000
  Si   0.50000000   0.50000000   0.68750000
  Si   0.56250000   0.25000000   0.65625000
  Si   0.62500000   0.00000000   0.68750000
  Si   0.56250000   0.75000000   0.71875000
  Si   0.68750000   0.25000000   0.71875000
  Si   0.68750000   0.75000000   0.65625000
  Si   0.62500000   0.50000000   0.62500000
  Si   0.75000000   0.00000000   0.62500000
  Si   0.75000000   0.50000000   0.68750000
  Si   0.81250000   0.25000000   0.65625000
  Si   0.87500000   0.00000000   0.68750000
  Si   0.81250000   0.75000000   0.71875000
  Si   0.93750000   0.25000000   0.71875000
  Si   0.93750000   0.75000000   0.65625000
  Si   0.87500000   0.50000000   0.62500000
  Si   0.00000000   0.00000000   0.75000000
  Si   0.00000000   0.50000000   0.81250000
  Si   0.06250000   0.25000000   0.78125000
  Si   0.12500000   0.00000000   0.81250000
  Si   0.06250000   0.75000000   0.84375000
  Si   0.18750000   0.25000000   0.84375000
  Si   0.18750000   0.75000000   0.78125000
  Si   0.12500000   0.50000000   0.75000000
  Si   0.25000000   0.00000000   0.75000000
  Si   0.25000000   0.50000000   0.81250000
  Si   0.31250000   0.25000000   0.78125000
  Si   0.37500000   0.00000000   0.81250000
  Si   0.31250000   0.75000000   0.84375000
  Si   0.43750000   0.25000000   0.84375000
  Si   0.43750000   0.75000000   0.78125000
  Si   0.37500000   0.50000000   0.75000000
  Si   0.50000000   0.00000000   0.75000000
  Si   0.50000000   0.50000000   0.81250000
  Si   0.56250000   0.25000000   0.78125000
  Si   0.62500000   0.00000000   0.81250000
  Si   0.56250000   0.75000000   0.84375000
  Si   0.68750000   0.25000000   0.84375000
  Si   0.68750000   0.75000000   0.78125000
  Si   0.62500000   0.50000000   0.75000000
  Si   0.75000000   0.00000000   0.75000000
  Si   0.75000000   0.50000000   0.81250000
  Si   0.81250000   0.25000000   0.78125000
  Si   0.87500000   0.00000000   0.81250000
  Si   0.81250000   0.75000000   0.84375000
  Si   0.93750000   0.25000000   0.84375000
  Si   0.93750000   0.75000000   0.78125000
  Si   0.87500000   0.50000000   0.75000000
%ENDBLOCK POSITIONS_FRAC

%BLOCK SPECIES_POT
  NCP
%ENDBLOCK SPECIES_POT

kpoint_mp_grid : 1 1 1

phonon_kpoint_mp_grid : 2 4 1
phonon_kpoint_mp_offset : 0.250 0.125 0.000

phonon_fine_kpoint_path_spacing : 0.01

%Block phonon_fine_kpoint_path
  0.0 0.0 0.0
  0.5 0.0 0.0
  0.5 0.5 0.0
  0.0 0.0 0.0
%endBlock phonon_fine_kpoint_path

%block cell_devel_code
P1_SYMMETRY
%endblock cell_devel_code
